21° run output:
{
    "Function": "ClusterB300.tsp",
    "Problem dimension": [
        185,
        265,
        251,
        68,
        149,
        111,
        260,
        183,
        52,
        198,
        264,
        81,
        15,
        49,
        225,
        221,
        297,
        293,
        233,
        268,
        22,
        69,
        235,
        83,
        257,
        55,
        34,
        275,
        94,
        255,
        280,
        163,
        92,
        122,
        215,
        205,
        226,
        89,
        61,
        294,
        166,
        289,
        99,
        80,
        172,
        126,
        21,
        298,
        248,
        147,
        106,
        154,
        236,
        46,
        82,
        202,
        210,
        173,
        224,
        191,
        5,
        6,
        192,
        130,
        121,
        119,
        291,
        135,
        10,
        288,
        20,
        70,
        237,
        179,
        53,
        184,
        239,
        296,
        216,
        28,
        274,
        284,
        145,
        136,
        129,
        117,
        29,
        132,
        245,
        54,
        201,
        266,
        148,
        285,
        31,
        72,
        30,
        73,
        162,
        254,
        146,
        139,
        160,
        161,
        261,
        131,
        101,
        137,
        7,
        140,
        19,
        170,
        41,
        108,
        76,
        65,
        193,
        84,
        26,
        153,
        200,
        167,
        91,
        223,
        113,
        242,
        165,
        96,
        66,
        234,
        16,
        258,
        98,
        90,
        212,
        259,
        118,
        27,
        58,
        272,
        134,
        128,
        222,
        178,
        115,
        273,
        208,
        206,
        51,
        155,
        109,
        110,
        23,
        124,
        74,
        211,
        256,
        252,
        253,
        87,
        238,
        39,
        47,
        112,
        269,
        14,
        197,
        120,
        250,
        71,
        220,
        75,
        143,
        286,
        246,
        4,
        32,
        158,
        107,
        114,
        282,
        18,
        189,
        164,
        125,
        232,
        93,
        150,
        181,
        105,
        62,
        176,
        79,
        214,
        0,
        267,
        228,
        199,
        182,
        177,
        38,
        244,
        279,
        8,
        17,
        56,
        263,
        219,
        57,
        40,
        13,
        247,
        42,
        67,
        171,
        127,
        240,
        144,
        86,
        77,
        175,
        45,
        35,
        207,
        64,
        104,
        9,
        142,
        151,
        204,
        48,
        43,
        217,
        123,
        287,
        85,
        63,
        278,
        195,
        78,
        270,
        277,
        37,
        116,
        138,
        102,
        2,
        25,
        88,
        271,
        95,
        276,
        1,
        11,
        103,
        24,
        44,
        100,
        281,
        169,
        3,
        187,
        180,
        196,
        229,
        174,
        218,
        159,
        186,
        156,
        36,
        292,
        97,
        12,
        213,
        50,
        290,
        194,
        262,
        190,
        33,
        168,
        231,
        299,
        243,
        203,
        157,
        209,
        227,
        249,
        188,
        59,
        230,
        152,
        283,
        60,
        241,
        295,
        133,
        141
    ],
    "Global Optimum": 0,
    "Algorithm": "Genetic algorithm",
    "Parameters": {
        "population": 30,
        "offspring": 30,
        "mutation probability": 0.0033333333333333335,
        "crossover probability": 0.9
    },
    "Fitness": 306750,
    "Solution": [
        185,
        265,
        251,
        68,
        149,
        111,
        260,
        183,
        52,
        198,
        264,
        81,
        15,
        49,
        225,
        221,
        297,
        293,
        233,
        268,
        22,
        69,
        235,
        83,
        257,
        55,
        34,
        275,
        94,
        255,
        280,
        163,
        92,
        122,
        215,
        205,
        226,
        89,
        61,
        294,
        166,
        289,
        99,
        80,
        172,
        126,
        21,
        298,
        248,
        147,
        106,
        154,
        236,
        46,
        82,
        202,
        210,
        173,
        224,
        191,
        5,
        6,
        192,
        130,
        121,
        119,
        291,
        135,
        10,
        288,
        20,
        70,
        237,
        179,
        53,
        184,
        239,
        296,
        216,
        28,
        274,
        284,
        145,
        136,
        129,
        117,
        29,
        132,
        245,
        54,
        201,
        266,
        148,
        285,
        31,
        72,
        30,
        73,
        162,
        254,
        146,
        139,
        160,
        161,
        261,
        131,
        101,
        137,
        7,
        140,
        19,
        170,
        41,
        108,
        76,
        65,
        193,
        84,
        26,
        153,
        200,
        167,
        91,
        223,
        113,
        242,
        165,
        96,
        66,
        234,
        16,
        258,
        98,
        90,
        212,
        259,
        118,
        27,
        58,
        272,
        134,
        128,
        222,
        178,
        115,
        273,
        208,
        206,
        51,
        155,
        109,
        110,
        23,
        124,
        74,
        211,
        256,
        252,
        253,
        87,
        238,
        39,
        47,
        112,
        269,
        14,
        197,
        120,
        250,
        71,
        220,
        75,
        143,
        286,
        246,
        4,
        32,
        158,
        107,
        114,
        282,
        18,
        189,
        164,
        125,
        232,
        93,
        150,
        181,
        105,
        62,
        176,
        79,
        214,
        0,
        267,
        228,
        199,
        182,
        177,
        38,
        244,
        279,
        8,
        17,
        56,
        263,
        219,
        57,
        40,
        13,
        247,
        42,
        67,
        171,
        127,
        240,
        144,
        86,
        77,
        175,
        45,
        35,
        207,
        64,
        104,
        9,
        142,
        151,
        204,
        48,
        43,
        217,
        123,
        287,
        85,
        63,
        278,
        195,
        78,
        270,
        277,
        37,
        116,
        138,
        102,
        2,
        25,
        88,
        271,
        95,
        276,
        1,
        11,
        103,
        24,
        44,
        100,
        281,
        169,
        3,
        187,
        180,
        196,
        229,
        174,
        218,
        159,
        186,
        156,
        36,
        292,
        97,
        12,
        213,
        50,
        290,
        194,
        262,
        190,
        33,
        168,
        231,
        299,
        243,
        203,
        157,
        209,
        227,
        249,
        188,
        59,
        230,
        152,
        283,
        60,
        241,
        295,
        133,
        141
    ],
    "Nb of functions evaluations": 200010,
    "Computational time in seconds": 370.25973629951477,
    "Stopping criterion in evaluations": 200000
}